Maximize
  - 38 x0 - 48 x1 - 45 x2 + 29 x3 - 37 x4 + 23 x5 + 0 x6 + 22 x7 + 0 x8
   - 41 x9 + 0 x10 + 13 x11 + 32 x12 - 46 x13 - 23 x14 - 17 x15 + 10 x16
   + 0 x17 + 0 x18 + 25 x19 + 0 x20 - 16 x21 + 0 x22 - 23 x23 - 36 x24
   - 21 x25 + 17 x26 + 40 x27 - 10 x28 - 20 x29 - 37 x30 - 33 x31 + 0 x32
   + 0 x33 + 0 x34 - 10 x35 - 17 x36 + 0 x37 + 46 x38 + 0 x39 - x40
   + 18 x41 + 0 x42 - 49 x43 + 0 x44 - 27 x45 + 11 x46 + 12 x47 - 23 x48
   - 42 x49 + 5 x50 + 0 x51 + 0 x52 + 41 x53 + 10 x54 + 25 x55 + 0 x56
   - 41 x57 - 37 x58 + 0 x59 + 41 x60 - 16 x61 + 9 x62 - 16 x63 - 40 x64
   + 21 x65 + 2 x66 + 0 x67 + 23 x68 + 41 x69 - 22 x70 + 0 x71 + 14 x72
   + 21 x73 - 39 x74 - 14 x75 - 13 x76 + 46 x77 + 0 x78 - 16 x79 + [
   - 47 x0 ^2 + 38 x0 * x3 + 70 x0 * x4 - 38 x0 * x5 + 30 x0 * x6
   - 52 x0 * x7 + 60 x0 * x8 + 12 x0 * x9 - 70 x0 * x10 + 8 x0 * x12
   - 96 x0 * x13 - 38 x0 * x14 - 4 x0 * x17 + 6 x0 * x18 - 24 x0 * x19
   + 2 x0 * x21 - 16 x0 * x22 + 86 x0 * x23 - 44 x0 * x25 + 46 x0 * x26
   - 84 x0 * x27 - 98 x0 * x28 - 50 x0 * x29 + 36 x0 * x30 - 78 x0 * x32
   - 20 x0 * x34 - 52 x0 * x35 - 2 x0 * x36 + 68 x0 * x37 - 90 x0 * x38
   + 14 x0 * x40 - 10 x0 * x41 + 10 x0 * x42 + 36 x0 * x43 + 10 x0 * x44
   - 34 x0 * x45 - 12 x0 * x48 + 20 x0 * x49 - 66 x0 * x52 + 86 x0 * x53
   - 96 x0 * x54 - 6 x0 * x55 - 46 x0 * x56 - 60 x0 * x57 - 98 x0 * x58
   - 88 x0 * x59 - 82 x0 * x60 - 46 x0 * x61 + 2 x0 * x62 - 54 x0 * x63
   + 92 x0 * x65 - 4 x0 * x66 - 46 x0 * x68 + 60 x0 * x69 - 76 x0 * x70
   + 94 x0 * x71 - 96 x0 * x72 + 24 x0 * x74 - 52 x0 * x77 + 44 x1 * x2
   - 16 x1 * x3 + 2 x1 * x4 + 54 x1 * x5 + 86 x1 * x6 + 26 x1 * x7
   - 58 x1 * x10 - 2 x1 * x11 + 36 x1 * x12 - 76 x1 * x16 + 64 x1 * x18
   + 40 x1 * x19 + 50 x1 * x21 - 76 x1 * x22 + 26 x1 * x23 - 64 x1 * x26
   - 6 x1 * x27 - 88 x1 * x28 + 50 x1 * x30 - 14 x1 * x31 - 60 x1 * x32
   + 24 x1 * x34 - 32 x1 * x36 + 46 x1 * x37 + 14 x1 * x41 + 6 x1 * x44
   - 30 x1 * x47 - 8 x1 * x48 - 78 x1 * x49 - 54 x1 * x50 + 94 x1 * x51
   + 4 x1 * x52 + 70 x1 * x54 - 74 x1 * x55 + 30 x1 * x56 - 86 x1 * x58
   + 74 x1 * x59 + 90 x1 * x60 + 8 x1 * x61 - 56 x1 * x62 + 56 x1 * x63
   - 16 x1 * x64 - 90 x1 * x65 + 64 x1 * x68 + 32 x1 * x69 - 52 x1 * x70
   - 98 x1 * x71 + 58 x1 * x72 + 28 x1 * x73 - 48 x1 * x74 - 22 x1 * x75
   + 48 x1 * x76 - 84 x1 * x79 - 43 x2 ^2 + 88 x2 * x3 + 36 x2 * x4
   - 76 x2 * x6 - 66 x2 * x7 - 12 x2 * x8 - 14 x2 * x9 + 58 x2 * x13
   - 50 x2 * x15 + 62 x2 * x16 - 80 x2 * x17 - 80 x2 * x18 + 60 x2 * x19
   + 26 x2 * x20 - 38 x2 * x21 - 42 x2 * x23 + 70 x2 * x24 - 16 x2 * x26
   - 66 x2 * x27 + 76 x2 * x28 + 94 x2 * x29 + 84 x2 * x32 + 16 x2 * x33
   - 58 x2 * x34 - 20 x2 * x35 - 22 x2 * x37 + 64 x2 * x38 - 62 x2 * x39
   - 22 x2 * x40 - 66 x2 * x41 - 38 x2 * x43 + 68 x2 * x44 + 10 x2 * x45
   - 16 x2 * x46 + 66 x2 * x47 + 22 x2 * x49 - 94 x2 * x50 + 36 x2 * x51
   - 50 x2 * x53 - 2 x2 * x54 + 86 x2 * x55 + 66 x2 * x56 - 90 x2 * x57
   - 82 x2 * x58 - 48 x2 * x59 - 26 x2 * x61 + 16 x2 * x62 + 38 x2 * x64
   - 60 x2 * x65 + 94 x2 * x68 - 46 x2 * x71 - 42 x2 * x73 - 76 x2 * x75
   + 6 x2 * x76 + 22 x2 * x77 + 74 x2 * x78 - 80 x2 * x79 - 45 x3 ^2
   + 58 x3 * x6 + 8 x3 * x9 + 40 x3 * x11 + 86 x3 * x12 - 82 x3 * x13
   + 64 x3 * x14 - 84 x3 * x15 + 66 x3 * x16 - 82 x3 * x18 + 54 x3 * x20
   - 70 x3 * x21 + 74 x3 * x24 + 66 x3 * x25 + 48 x3 * x26 + 18 x3 * x27
   - 78 x3 * x29 - 38 x3 * x31 + 36 x3 * x32 + 94 x3 * x33 + 78 x3 * x36
   + 58 x3 * x37 + 24 x3 * x38 + 76 x3 * x39 - 98 x3 * x40 - 2 x3 * x41
   - 74 x3 * x42 + 74 x3 * x43 + 28 x3 * x44 + 36 x3 * x45 + 4 x3 * x46
   - 92 x3 * x47 - 30 x3 * x50 + 88 x3 * x51 - 12 x3 * x52 + 18 x3 * x53
   + 76 x3 * x54 - 50 x3 * x58 - 72 x3 * x59 + 78 x3 * x60 + 44 x3 * x61
   - 40 x3 * x62 - 12 x3 * x63 - 86 x3 * x64 + 2 x3 * x67 + 84 x3 * x68
   + 50 x3 * x69 - 10 x3 * x72 + 12 x3 * x73 - 42 x3 * x74 + 40 x3 * x75
   + 80 x3 * x76 - 50 x3 * x77 - 52 x3 * x78 - 36 x3 * x79 - 45 x4 ^2
   - 60 x4 * x6 - 74 x4 * x7 - 86 x4 * x8 - 34 x4 * x9 - 74 x4 * x10
   - 54 x4 * x11 + 36 x4 * x13 - 36 x4 * x14 + 60 x4 * x16 + 2 x4 * x19
   - 76 x4 * x20 - 68 x4 * x21 + 82 x4 * x24 - 4 x4 * x25 + 70 x4 * x26
   - 40 x4 * x27 - 54 x4 * x28 - 16 x4 * x30 + 8 x4 * x31 + 10 x4 * x34
   + 34 x4 * x35 - 94 x4 * x36 - 14 x4 * x37 - 98 x4 * x38 + 24 x4 * x39
   - 86 x4 * x40 + 34 x4 * x41 - 4 x4 * x43 - 94 x4 * x46 + 38 x4 * x47
   + 68 x4 * x49 - 86 x4 * x50 - 86 x4 * x51 - 10 x4 * x52 + 2 x4 * x53
   + 90 x4 * x56 + 80 x4 * x57 - 70 x4 * x58 + 18 x4 * x59 + 16 x4 * x61
   - 36 x4 * x62 - 30 x4 * x63 + 44 x4 * x64 - 96 x4 * x65 - 58 x4 * x68
   - 86 x4 * x70 + 58 x4 * x71 - 80 x4 * x72 + 82 x4 * x73 + 34 x4 * x75
   - 64 x4 * x76 - 12 x4 * x77 + 14 x4 * x78 - 24 x4 * x79 - 74 x5 * x6
   - 40 x5 * x7 + 94 x5 * x9 - 12 x5 * x10 + 28 x5 * x12 + 18 x5 * x13
   - 30 x5 * x14 + 58 x5 * x17 - 62 x5 * x18 + 22 x5 * x20 + 96 x5 * x21
   - 90 x5 * x22 - 94 x5 * x24 + 26 x5 * x25 + 46 x5 * x26 + 4 x5 * x28
   - 18 x5 * x29 + 56 x5 * x30 + 28 x5 * x31 + 66 x5 * x34 - 62 x5 * x35
   + 50 x5 * x37 + 76 x5 * x38 - 26 x5 * x39 + 2 x5 * x40 - 96 x5 * x42
   + 34 x5 * x44 - 14 x5 * x46 - 84 x5 * x47 - 46 x5 * x48 - 16 x5 * x49
   + 6 x5 * x51 - 32 x5 * x52 + 40 x5 * x53 - 38 x5 * x54 - 36 x5 * x57
   + 58 x5 * x58 + 74 x5 * x60 - 22 x5 * x61 + 42 x5 * x62 - 38 x5 * x63
   - 54 x5 * x64 - 58 x5 * x65 - 68 x5 * x66 - 44 x5 * x69 - 68 x5 * x70
   + 8 x5 * x71 + 66 x5 * x72 - 2 x5 * x73 + 66 x5 * x74 - 38 x5 * x75
   + 86 x5 * x78 + 96 x6 * x7 - 44 x6 * x8 - 16 x6 * x9 + 32 x6 * x11
   - 62 x6 * x12 + 28 x6 * x13 + 6 x6 * x16 + 52 x6 * x17 + 50 x6 * x18
   + 38 x6 * x19 - 44 x6 * x20 - 84 x6 * x23 - 20 x6 * x24 - 82 x6 * x25
   - 66 x6 * x27 - 98 x6 * x28 + 60 x6 * x29 + 50 x6 * x31 + 88 x6 * x32
   - 74 x6 * x34 + 24 x6 * x35 - 40 x6 * x37 - 48 x6 * x40 - 74 x6 * x42
   + 38 x6 * x43 + 6 x6 * x44 + 60 x6 * x45 + 4 x6 * x46 - 82 x6 * x47
   + 10 x6 * x48 - 14 x6 * x49 - 60 x6 * x51 - 2 x6 * x52 + 18 x6 * x54
   - 30 x6 * x58 + 10 x6 * x59 + 44 x6 * x60 + 2 x6 * x62 - 38 x6 * x63
   - 76 x6 * x64 - 2 x6 * x67 + 86 x6 * x68 - 48 x6 * x70 - 78 x6 * x71
   - 92 x6 * x72 - 36 x6 * x73 - 56 x6 * x74 + 48 x6 * x76 - 26 x6 * x77
   - 2 x7 ^2 - 94 x7 * x8 - 10 x7 * x9 + 64 x7 * x10 - 20 x7 * x12
   + 60 x7 * x13 - 44 x7 * x15 - 94 x7 * x16 + 24 x7 * x17 - 80 x7 * x18
   - 98 x7 * x20 + 48 x7 * x21 + 80 x7 * x22 - 4 x7 * x23 + 4 x7 * x25
   + 32 x7 * x27 - 50 x7 * x28 - 64 x7 * x30 + 68 x7 * x31 + 66 x7 * x32
   + 78 x7 * x33 - 54 x7 * x34 - 44 x7 * x35 + 2 x7 * x36 + 78 x7 * x37
   - 34 x7 * x39 + 8 x7 * x40 - 76 x7 * x41 - 48 x7 * x42 + 14 x7 * x43
   + 56 x7 * x45 - 48 x7 * x46 - 42 x7 * x47 - 4 x7 * x48 + 60 x7 * x49
   - 98 x7 * x50 + 10 x7 * x51 - 92 x7 * x52 - 40 x7 * x53 - 60 x7 * x54
   - 52 x7 * x55 + 4 x7 * x56 - 98 x7 * x57 - 80 x7 * x59 + 86 x7 * x61
   - 86 x7 * x64 + 76 x7 * x65 - 54 x7 * x68 - 78 x7 * x69 - 46 x7 * x70
   - 60 x7 * x71 - 86 x7 * x72 + 72 x7 * x73 - 88 x7 * x75 + 54 x7 * x76
   - 20 x7 * x78 - 46 x7 * x79 + 24 x8 ^2 - 18 x8 * x9 - 72 x8 * x11
   - 36 x8 * x12 - 84 x8 * x13 + 8 x8 * x14 + 64 x8 * x15 - 6 x8 * x16
   + 26 x8 * x17 - 20 x8 * x19 - 68 x8 * x20 + 78 x8 * x21 - 52 x8 * x22
   + 14 x8 * x24 + 58 x8 * x25 + 70 x8 * x26 + 54 x8 * x28 - 90 x8 * x30
   + 68 x8 * x31 - 98 x8 * x32 + 50 x8 * x33 + 64 x8 * x34 - 14 x8 * x36
   - 90 x8 * x37 - 82 x8 * x38 - 38 x8 * x39 - 6 x8 * x41 + 6 x8 * x42
   + 26 x8 * x43 - 14 x8 * x44 + 2 x8 * x46 - 30 x8 * x48 + 96 x8 * x49
   - 2 x8 * x50 - 80 x8 * x51 + 16 x8 * x52 - 30 x8 * x53 + 98 x8 * x55
   - 60 x8 * x56 + 76 x8 * x57 - 56 x8 * x58 + 16 x8 * x60 - 20 x8 * x62
   + 78 x8 * x65 - 24 x8 * x66 + 62 x8 * x67 + 46 x8 * x69 + 42 x8 * x70
   + 28 x8 * x71 - 20 x8 * x72 - 36 x8 * x73 - 70 x8 * x74 - 10 x8 * x75
   + 92 x8 * x76 - 18 x8 * x77 - 80 x8 * x78 + 46 x8 * x79 + 35 x9 ^2
   + 76 x9 * x10 - 78 x9 * x16 - 92 x9 * x17 - 84 x9 * x18 - 8 x9 * x20
   + 26 x9 * x21 - 92 x9 * x22 + 10 x9 * x23 - 64 x9 * x25 + 70 x9 * x26
   + 86 x9 * x27 - 40 x9 * x28 - 62 x9 * x29 - 20 x9 * x30 + 84 x9 * x32
   - 28 x9 * x33 + 66 x9 * x36 - 20 x9 * x37 + 42 x9 * x38 + 70 x9 * x39
   - 80 x9 * x40 - 82 x9 * x41 + 56 x9 * x43 - 88 x9 * x44 - 48 x9 * x46
   - 74 x9 * x47 + 74 x9 * x48 - 96 x9 * x50 - 88 x9 * x51 - 58 x9 * x52
   + 52 x9 * x55 - 28 x9 * x56 - 84 x9 * x57 - 66 x9 * x58 + 84 x9 * x59
   - 24 x9 * x60 + 20 x9 * x61 - 10 x9 * x62 + 30 x9 * x64 - 12 x9 * x66
   - 88 x9 * x67 - 54 x9 * x68 + 70 x9 * x69 - 92 x9 * x70 - 88 x9 * x71
   - 78 x9 * x72 - 4 x9 * x73 + 44 x9 * x74 - 78 x9 * x75 + 92 x9 * x76
   + 74 x9 * x78 - 32 x9 * x79 - 3 x10 ^2 + 2 x10 * x11 + 76 x10 * x13
   - 26 x10 * x14 + 82 x10 * x15 + 52 x10 * x16 + 18 x10 * x18
   - 70 x10 * x19 + 78 x10 * x20 + 16 x10 * x21 - 68 x10 * x23
   + 10 x10 * x24 + 16 x10 * x25 - 12 x10 * x26 + 8 x10 * x27 + 8 x10 * x29
   - 32 x10 * x31 + 52 x10 * x33 + 68 x10 * x34 - 82 x10 * x35
   - 42 x10 * x36 + 68 x10 * x38 - 26 x10 * x43 + 58 x10 * x44
   - 74 x10 * x45 - 10 x10 * x46 + 72 x10 * x47 - 64 x10 * x48
   - 80 x10 * x49 + 96 x10 * x50 + 92 x10 * x51 - 88 x10 * x52
   - 62 x10 * x54 - 22 x10 * x55 + 12 x10 * x57 + 84 x10 * x58
   + 20 x10 * x60 + 32 x10 * x63 + 66 x10 * x65 - 42 x10 * x67
   + 40 x10 * x69 + 58 x10 * x70 - 66 x10 * x71 - 38 x10 * x72
   - 8 x10 * x73 + 32 x10 * x74 + 82 x10 * x75 + 4 x10 * x79 - 25 x11 ^2
   + 46 x11 * x12 - 90 x11 * x14 + 60 x11 * x15 - 98 x11 * x16
   - 10 x11 * x17 + 46 x11 * x20 + 74 x11 * x22 + 82 x11 * x23
   - 34 x11 * x24 + 96 x11 * x27 + 56 x11 * x28 + 60 x11 * x29
   - 74 x11 * x30 + 22 x11 * x31 + 56 x11 * x33 - 26 x11 * x35
   - 86 x11 * x36 - 40 x11 * x38 + 22 x11 * x40 - 80 x11 * x41
   + 22 x11 * x43 - 78 x11 * x44 - 72 x11 * x45 - 28 x11 * x46
   + 50 x11 * x48 + 52 x11 * x50 - 32 x11 * x51 - 34 x11 * x52
   - 46 x11 * x53 - 72 x11 * x54 - 18 x11 * x57 - 60 x11 * x59
   + 28 x11 * x61 - 42 x11 * x62 + 64 x11 * x64 + 90 x11 * x65
   - 70 x11 * x66 + 8 x11 * x67 - 64 x11 * x69 + 76 x11 * x71
   + 24 x11 * x73 - 28 x11 * x76 + 96 x11 * x78 - 28 x11 * x79
   + 14 x12 * x15 - 56 x12 * x17 - 74 x12 * x18 + 12 x12 * x21
   - 94 x12 * x22 - 92 x12 * x23 - 60 x12 * x24 - 22 x12 * x25
   + 54 x12 * x26 + 58 x12 * x28 + 36 x12 * x29 - 36 x12 * x30
   - 64 x12 * x31 + 50 x12 * x32 + 36 x12 * x33 - 64 x12 * x35
   + 86 x12 * x36 + 42 x12 * x37 - 46 x12 * x38 + 8 x12 * x39
   + 44 x12 * x40 - 84 x12 * x41 - 54 x12 * x42 - 4 x12 * x43
   - 42 x12 * x44 - 60 x12 * x45 - 94 x12 * x46 + 30 x12 * x47
   - 94 x12 * x48 + 86 x12 * x49 + 62 x12 * x50 - 48 x12 * x51
   + 22 x12 * x52 - 30 x12 * x54 + 76 x12 * x55 - 42 x12 * x56
   + 80 x12 * x58 - 54 x12 * x59 - 32 x12 * x61 - 20 x12 * x63
   - 72 x12 * x65 + 98 x12 * x66 - 28 x12 * x67 - 4 x12 * x69
   + 56 x12 * x70 + 36 x12 * x71 - 94 x12 * x72 + 76 x12 * x73
   - 98 x12 * x74 - 42 x12 * x76 - 44 x12 * x77 + 10 x12 * x78
   + 8 x12 * x79 - 6 x13 ^2 - 68 x13 * x14 - 8 x13 * x15 - 66 x13 * x17
   - 26 x13 * x23 - 36 x13 * x25 - 14 x13 * x27 + 26 x13 * x28
   - 80 x13 * x30 + 46 x13 * x33 - 80 x13 * x34 - 24 x13 * x35
   - 52 x13 * x36 - 66 x13 * x37 + 56 x13 * x41 - 16 x13 * x43
   - 4 x13 * x44 - 4 x13 * x45 + 50 x13 * x47 + 42 x13 * x48 + 18 x13 * x49
   + 60 x13 * x50 - 42 x13 * x51 - 54 x13 * x53 + 60 x13 * x55
   - 14 x13 * x56 + 68 x13 * x57 - 80 x13 * x58 + 14 x13 * x59
   - 74 x13 * x60 - 6 x13 * x61 - 2 x13 * x62 + 86 x13 * x64 - 76 x13 * x65
   + 36 x13 * x66 - 54 x13 * x67 - 24 x13 * x68 + 8 x13 * x69
   - 10 x13 * x74 + 14 x13 * x75 + 90 x13 * x76 - 22 x13 * x77
   - 90 x13 * x79 + 24 x14 ^2 + 72 x14 * x15 + 86 x14 * x17 - 2 x14 * x18
   + 64 x14 * x19 + 32 x14 * x21 + 88 x14 * x22 - 18 x14 * x23
   + 84 x14 * x25 + 50 x14 * x27 - 12 x14 * x31 + 24 x14 * x32
   - 40 x14 * x33 - 46 x14 * x35 - 40 x14 * x38 - 4 x14 * x40
   - 62 x14 * x42 + 92 x14 * x44 - 80 x14 * x45 - 64 x14 * x46
   - 18 x14 * x47 + 68 x14 * x48 + 98 x14 * x49 + 90 x14 * x50
   - 94 x14 * x51 + 4 x14 * x52 + 72 x14 * x53 - 70 x14 * x55
   + 54 x14 * x56 - 18 x14 * x57 + 40 x14 * x58 + 8 x14 * x59
   - 10 x14 * x60 - 96 x14 * x63 - 74 x14 * x64 - 20 x14 * x68
   - 74 x14 * x69 + 98 x14 * x70 + 42 x14 * x71 + 56 x14 * x72
   - 66 x14 * x73 - 72 x14 * x74 + 74 x14 * x75 - 82 x14 * x76
   - 66 x14 * x77 + 20 x14 * x78 - 54 x14 * x79 - 84 x15 * x17
   - 6 x15 * x18 - 8 x15 * x19 + 80 x15 * x20 + 40 x15 * x21 + 96 x15 * x22
   - 30 x15 * x23 + 10 x15 * x24 + 16 x15 * x25 - 2 x15 * x26
   + 84 x15 * x27 - 14 x15 * x28 - 6 x15 * x31 - 10 x15 * x32
   - 10 x15 * x33 - 78 x15 * x34 - 32 x15 * x36 + 46 x15 * x40
   + 98 x15 * x41 - 28 x15 * x42 - 44 x15 * x44 + 98 x15 * x45
   + 28 x15 * x47 + 56 x15 * x49 + 12 x15 * x50 + 72 x15 * x51
   - 34 x15 * x52 + 16 x15 * x55 - 60 x15 * x56 + 4 x15 * x57
   - 26 x15 * x59 - 60 x15 * x60 - 60 x15 * x61 + 64 x15 * x62
   - 86 x15 * x63 + 40 x15 * x64 - 32 x15 * x65 + 50 x15 * x66
   - 14 x15 * x67 - 18 x15 * x68 - 24 x15 * x69 + 18 x15 * x70
   + 86 x15 * x71 - 42 x15 * x73 + 28 x15 * x74 + 72 x15 * x75
   + 4 x15 * x76 + 58 x15 * x77 + 2 x15 * x79 - 12 x16 ^2 + 94 x16 * x18
   - 94 x16 * x19 - 64 x16 * x20 + 22 x16 * x21 + 38 x16 * x22
   - 58 x16 * x24 + 74 x16 * x25 - 58 x16 * x28 + 82 x16 * x29
   + 64 x16 * x30 - 18 x16 * x32 - 92 x16 * x34 + 26 x16 * x35
   + 16 x16 * x37 + 50 x16 * x38 - 38 x16 * x39 + 8 x16 * x40
   + 74 x16 * x41 + 62 x16 * x42 + 92 x16 * x43 - 54 x16 * x44
   + 46 x16 * x45 + 72 x16 * x46 + 42 x16 * x48 + 10 x16 * x50
   + 78 x16 * x51 + 2 x16 * x52 - 18 x16 * x53 + 70 x16 * x55
   - 16 x16 * x56 + 52 x16 * x57 + 56 x16 * x59 - 82 x16 * x60
   + 22 x16 * x61 - 50 x16 * x62 + 26 x16 * x63 + 76 x16 * x64
   - 22 x16 * x65 + 4 x16 * x67 + 40 x16 * x68 + 24 x16 * x69
   + 22 x16 * x72 - 40 x16 * x73 + 12 x16 * x75 + 46 x16 * x76
   - 70 x16 * x77 + 42 x17 * x20 + 2 x17 * x21 + 60 x17 * x22 - 6 x17 * x23
   + 72 x17 * x26 + 88 x17 * x27 - 34 x17 * x28 - 22 x17 * x30
   - 24 x17 * x31 + 22 x17 * x33 - 28 x17 * x34 - 80 x17 * x36
   + 70 x17 * x37 - 72 x17 * x40 - 4 x17 * x41 + 80 x17 * x42 - 6 x17 * x43
   + 36 x17 * x44 - 40 x17 * x45 - 40 x17 * x47 - 30 x17 * x48
   + 20 x17 * x50 + 26 x17 * x51 + 42 x17 * x52 + 16 x17 * x53
   - 28 x17 * x54 - 6 x17 * x56 + 30 x17 * x57 + 8 x17 * x58 - 72 x17 * x59
   + 20 x17 * x60 + 44 x17 * x61 + 72 x17 * x62 + 14 x17 * x63
   + 20 x17 * x68 - 30 x17 * x69 + 76 x17 * x72 + 58 x17 * x73
   + 76 x17 * x74 - 24 x17 * x75 + 78 x17 * x76 - 36 x17 * x79 - 31 x18 ^2
   - 86 x18 * x19 + 16 x18 * x20 + 82 x18 * x21 - 54 x18 * x22
   + 84 x18 * x24 + 8 x18 * x26 - 10 x18 * x29 + 64 x18 * x30
   + 86 x18 * x31 - 6 x18 * x33 + 88 x18 * x34 - 46 x18 * x35
   + 40 x18 * x39 - 46 x18 * x40 - 46 x18 * x41 + 56 x18 * x42
   + 20 x18 * x43 - 22 x18 * x45 + 32 x18 * x46 + 62 x18 * x48
   - 10 x18 * x50 + 58 x18 * x51 + 24 x18 * x52 - 86 x18 * x53
   + 62 x18 * x54 - 68 x18 * x55 + 14 x18 * x56 - 86 x18 * x58
   - 4 x18 * x59 - 62 x18 * x60 + 76 x18 * x61 + 34 x18 * x62
   - 58 x18 * x63 + 48 x18 * x64 + 12 x18 * x65 - 84 x18 * x66
   + 98 x18 * x67 + 68 x18 * x68 + 52 x18 * x69 - 2 x18 * x70
   + 14 x18 * x71 + 10 x18 * x73 - 70 x18 * x75 - 60 x18 * x76
   - 84 x18 * x77 - 58 x18 * x78 + 90 x19 * x20 + 24 x19 * x21
   - 50 x19 * x22 + 58 x19 * x24 + 16 x19 * x26 - 38 x19 * x27
   + 74 x19 * x28 - 96 x19 * x29 - 22 x19 * x30 + 16 x19 * x31
   - 70 x19 * x32 - 22 x19 * x33 + 92 x19 * x34 + 48 x19 * x36
   + 68 x19 * x37 + 8 x19 * x38 + 86 x19 * x39 - 86 x19 * x40 - 8 x19 * x41
   - 24 x19 * x42 + 98 x19 * x43 + 96 x19 * x45 - 4 x19 * x46
   - 52 x19 * x47 - 26 x19 * x48 - 34 x19 * x49 + 24 x19 * x50
   - 10 x19 * x51 + 20 x19 * x52 - 48 x19 * x53 + 40 x19 * x55
   - 44 x19 * x59 + 98 x19 * x60 + 24 x19 * x61 - 62 x19 * x62
   - 24 x19 * x67 - 74 x19 * x68 - 46 x19 * x70 - 88 x19 * x71
   - 32 x19 * x72 + 50 x19 * x75 - 42 x19 * x76 + 14 x19 * x78
   - 98 x20 * x21 - 60 x20 * x22 - 8 x20 * x23 + 88 x20 * x24
   + 28 x20 * x25 - 56 x20 * x26 + 28 x20 * x27 + 54 x20 * x28
   + 6 x20 * x32 + 24 x20 * x33 + 28 x20 * x34 + 38 x20 * x35
   - 76 x20 * x37 - 82 x20 * x39 - 12 x20 * x40 - 30 x20 * x42
   - 20 x20 * x43 - 32 x20 * x45 - 32 x20 * x46 + 24 x20 * x49
   - 4 x20 * x50 - 42 x20 * x52 - 58 x20 * x53 - 58 x20 * x54
   + 88 x20 * x55 + 12 x20 * x56 + 56 x20 * x57 - 14 x20 * x58
   + 54 x20 * x59 + 82 x20 * x60 - 10 x20 * x63 + 32 x20 * x64
   - 4 x20 * x65 + 18 x20 * x66 + 82 x20 * x67 + 28 x20 * x68 - 4 x20 * x71
   - 8 x20 * x73 + 16 x20 * x74 - 82 x20 * x75 + 90 x20 * x76
   + 56 x20 * x77 - 84 x20 * x78 - 4 x20 * x79 + 16 x21 ^2 + 22 x21 * x22
   + 30 x21 * x23 + 92 x21 * x24 + 36 x21 * x25 - 70 x21 * x26
   - 12 x21 * x27 - 36 x21 * x28 - 40 x21 * x29 + 50 x21 * x30
   - 46 x21 * x31 + 36 x21 * x32 - 84 x21 * x33 + 60 x21 * x34
   - 56 x21 * x35 - 10 x21 * x36 - 32 x21 * x37 - 58 x21 * x38
   + 88 x21 * x39 + 50 x21 * x40 - 24 x21 * x41 - 40 x21 * x42
   + 14 x21 * x43 + 90 x21 * x44 - 56 x21 * x47 + 94 x21 * x49
   - 12 x21 * x50 - 92 x21 * x51 - 20 x21 * x52 + 4 x21 * x53
   - 78 x21 * x54 - 68 x21 * x55 + 4 x21 * x56 + 82 x21 * x57
   - 38 x21 * x58 + 50 x21 * x59 - 34 x21 * x60 - 24 x21 * x61
   + 68 x21 * x62 + 16 x21 * x63 - 94 x21 * x65 - 72 x21 * x69
   - 28 x21 * x71 + 8 x21 * x72 - 20 x21 * x74 + 14 x21 * x75
   + 82 x21 * x77 + 4 x21 * x78 - 22 x21 * x79 - 18 x22 ^2 - 22 x22 * x23
   + 22 x22 * x24 + 32 x22 * x25 + 74 x22 * x26 - 98 x22 * x27
   - 12 x22 * x28 - 24 x22 * x29 + 90 x22 * x30 + 88 x22 * x31
   - 42 x22 * x32 - 96 x22 * x33 + 74 x22 * x34 - 82 x22 * x35
   - 4 x22 * x36 - 6 x22 * x37 + 94 x22 * x38 + 90 x22 * x40 + 84 x22 * x41
   + 48 x22 * x43 + 32 x22 * x44 + 62 x22 * x46 + 82 x22 * x48
   + 86 x22 * x49 - 8 x22 * x52 + 82 x22 * x53 - 68 x22 * x54
   + 74 x22 * x55 + 26 x22 * x56 + 60 x22 * x57 - 8 x22 * x58
   + 88 x22 * x59 - 38 x22 * x60 + 40 x22 * x61 - 84 x22 * x63
   - 70 x22 * x64 + 42 x22 * x65 + 84 x22 * x67 + 78 x22 * x69
   - 92 x22 * x70 - 10 x22 * x71 + 4 x22 * x72 + 90 x22 * x73
   + 40 x22 * x76 - 14 x22 * x77 + 56 x22 * x78 + 35 x23 ^2 + 90 x23 * x24
   - 90 x23 * x26 + 10 x23 * x28 - 4 x23 * x29 - 80 x23 * x30
   + 50 x23 * x33 + 8 x23 * x34 + 88 x23 * x35 + 52 x23 * x37 + 2 x23 * x38
   + 28 x23 * x42 + 60 x23 * x43 + 78 x23 * x44 + 98 x23 * x45
   - 38 x23 * x46 - 6 x23 * x47 - 94 x23 * x48 - 44 x23 * x51
   + 48 x23 * x52 + 8 x23 * x53 - 28 x23 * x55 + 12 x23 * x58
   - 84 x23 * x59 + 68 x23 * x60 - 40 x23 * x61 - 38 x23 * x62
   + 16 x23 * x65 + 24 x23 * x66 - 30 x23 * x67 + 22 x23 * x68
   + 34 x23 * x69 - 18 x23 * x70 - 60 x23 * x72 + 26 x23 * x74
   - 74 x23 * x76 - 64 x23 * x77 + 76 x23 * x79 - 3 x24 ^2 - 46 x24 * x27
   + 88 x24 * x29 - 78 x24 * x30 + 14 x24 * x31 - 92 x24 * x32
   + 70 x24 * x33 + 38 x24 * x34 + 76 x24 * x35 - 72 x24 * x37
   - 10 x24 * x38 + 80 x24 * x39 - 70 x24 * x40 + 68 x24 * x42
   - 12 x24 * x43 - 18 x24 * x44 - 56 x24 * x45 + 42 x24 * x46
   + 8 x24 * x47 + 86 x24 * x48 - 96 x24 * x49 - 76 x24 * x50
   + 50 x24 * x51 + 60 x24 * x53 - 78 x24 * x54 - 96 x24 * x55
   + 52 x24 * x56 + 20 x24 * x59 - 36 x24 * x60 - 20 x24 * x61
   - 56 x24 * x63 - 38 x24 * x64 + 10 x24 * x66 - 88 x24 * x70
   - 92 x24 * x75 + 76 x24 * x76 + 36 x24 * x77 - 92 x24 * x78
   + 34 x24 * x79 - 7 x25 ^2 + 10 x25 * x26 + 14 x25 * x27 + 70 x25 * x29
   + 20 x25 * x31 - 50 x25 * x34 - 86 x25 * x35 + 82 x25 * x36
   + 16 x25 * x37 - 36 x25 * x38 - 50 x25 * x39 + 66 x25 * x40
   - 78 x25 * x41 + 88 x25 * x42 - 94 x25 * x44 + 50 x25 * x45
   + 24 x25 * x47 + 96 x25 * x48 + 46 x25 * x50 + 36 x25 * x52
   + 6 x25 * x53 + 84 x25 * x54 + 72 x25 * x55 - 28 x25 * x57
   - 48 x25 * x58 + 78 x25 * x59 + 90 x25 * x60 + 36 x25 * x61
   + 56 x25 * x62 - 54 x25 * x63 + 78 x25 * x64 + 6 x25 * x65
   + 58 x25 * x66 - 4 x25 * x67 + 50 x25 * x68 - 22 x25 * x69
   + 96 x25 * x70 - 24 x25 * x71 - 30 x25 * x73 + 88 x25 * x74
   + 70 x25 * x75 + 80 x25 * x76 + 42 x25 * x77 + 50 x25 * x78 - 12 x26 ^2
   + 78 x26 * x29 + 78 x26 * x31 + 64 x26 * x32 - 54 x26 * x33
   + 66 x26 * x35 - 34 x26 * x38 + 32 x26 * x40 + 98 x26 * x44
   - 14 x26 * x45 - 38 x26 * x47 - 50 x26 * x48 + 86 x26 * x49
   + 70 x26 * x51 - 24 x26 * x52 + 80 x26 * x53 + 62 x26 * x54
   - 74 x26 * x55 - 86 x26 * x57 - 90 x26 * x59 + 92 x26 * x61
   - 84 x26 * x62 + 40 x26 * x63 + 36 x26 * x64 - 48 x26 * x65
   - 94 x26 * x66 + 68 x26 * x67 + 42 x26 * x68 + 36 x26 * x69
   + 56 x26 * x75 - 62 x26 * x78 - 2 x26 * x79 + 25 x27 ^2 - 44 x27 * x28
   - 82 x27 * x30 + 74 x27 * x31 - 98 x27 * x33 - 98 x27 * x34
   - 98 x27 * x36 + 30 x27 * x38 - 32 x27 * x39 - 84 x27 * x40
   - 32 x27 * x41 - 50 x27 * x42 + 10 x27 * x44 + 84 x27 * x45
   + 48 x27 * x47 - 16 x27 * x48 - 48 x27 * x49 + 80 x27 * x50
   + 64 x27 * x52 - 14 x27 * x53 + 50 x27 * x54 + 64 x27 * x55
   - 22 x27 * x58 + 4 x27 * x60 - 22 x27 * x61 - 74 x27 * x62
   - 54 x27 * x63 - 28 x27 * x64 + 34 x27 * x65 + 86 x27 * x66
   + 14 x27 * x68 - 66 x27 * x69 + 24 x27 * x70 + 28 x27 * x71
   + 54 x27 * x72 - 28 x27 * x73 + 88 x27 * x74 + 42 x27 * x76
   - 40 x27 * x79 - 48 x28 ^2 + 38 x28 * x29 - 4 x28 * x30 - 96 x28 * x33
   - 72 x28 * x34 - 80 x28 * x36 + 28 x28 * x37 - 32 x28 * x38
   - 22 x28 * x40 - 30 x28 * x43 + 96 x28 * x44 - 26 x28 * x45
   + 26 x28 * x46 - 98 x28 * x47 - 26 x28 * x48 + 14 x28 * x49
   + 92 x28 * x51 - 70 x28 * x52 - 76 x28 * x53 + 10 x28 * x54
   + 6 x28 * x55 - 32 x28 * x56 - 32 x28 * x58 + 88 x28 * x61 + 2 x28 * x62
   - 2 x28 * x65 + 48 x28 * x67 - 96 x28 * x68 - 88 x28 * x69
   + 26 x28 * x70 - 44 x28 * x71 - 30 x28 * x72 - 2 x28 * x73
   - 76 x28 * x74 + 42 x28 * x76 - 12 x28 * x77 + 60 x28 * x78
   - 60 x28 * x79 - 26 x29 ^2 - 36 x29 * x31 + 64 x29 * x32 - 58 x29 * x34
   + 92 x29 * x35 - 96 x29 * x39 - 58 x29 * x40 + 22 x29 * x41
   - 76 x29 * x42 - 62 x29 * x43 - 90 x29 * x44 - 46 x29 * x47
   - 42 x29 * x48 + 44 x29 * x49 + 14 x29 * x50 + 60 x29 * x52
   - 46 x29 * x53 + 6 x29 * x55 - 68 x29 * x56 - 64 x29 * x57
   + 18 x29 * x58 - 38 x29 * x59 + 30 x29 * x61 + 74 x29 * x62
   + 66 x29 * x64 - 52 x29 * x65 + 68 x29 * x66 - 90 x29 * x67
   + 56 x29 * x68 + 34 x29 * x69 - 82 x29 * x70 + 54 x29 * x71
   + 84 x29 * x72 + 64 x29 * x73 + 84 x29 * x74 - 10 x29 * x75
   + 68 x29 * x76 + 24 x29 * x79 + 14 x30 ^2 + 58 x30 * x31 + 62 x30 * x35
   - 28 x30 * x36 - 90 x30 * x38 - 74 x30 * x40 + 30 x30 * x41
   + 54 x30 * x42 - 88 x30 * x43 - 46 x30 * x44 + 2 x30 * x45
   - 66 x30 * x46 + 98 x30 * x47 - 72 x30 * x48 + 58 x30 * x49
   + 8 x30 * x50 - 2 x30 * x51 - 22 x30 * x53 - 98 x30 * x55 - 16 x30 * x57
   - 38 x30 * x59 + 50 x30 * x61 + 4 x30 * x62 - 66 x30 * x63
   - 68 x30 * x65 - 66 x30 * x67 + 12 x30 * x69 - 32 x30 * x70
   + 62 x30 * x71 + 60 x30 * x72 - 48 x30 * x73 - 32 x30 * x74
   + 30 x30 * x75 + 36 x30 * x76 + 78 x30 * x77 + 48 x30 * x78
   - 16 x30 * x79 + 62 x31 * x33 + 42 x31 * x38 - 58 x31 * x39
   + 58 x31 * x41 - 96 x31 * x42 + 18 x31 * x44 - 36 x31 * x45
   + 96 x31 * x46 + 46 x31 * x48 - 78 x31 * x49 + 64 x31 * x50
   - 78 x31 * x51 - 82 x31 * x53 - 42 x31 * x54 + 10 x31 * x56
   - 80 x31 * x57 + 44 x31 * x59 + 54 x31 * x60 + 20 x31 * x62
   + 34 x31 * x65 - 62 x31 * x66 - 50 x31 * x67 + 36 x31 * x68
   + 52 x31 * x69 - 32 x31 * x70 + 2 x31 * x71 - 66 x31 * x73
   - 60 x31 * x75 - 44 x31 * x76 - 14 x31 * x77 + 10 x31 * x78 + 34 x32 ^2
   - 46 x32 * x33 + 44 x32 * x34 - 54 x32 * x35 - 52 x32 * x36
   - 56 x32 * x40 - 4 x32 * x41 + 18 x32 * x42 + 28 x32 * x43
   + 54 x32 * x44 + 88 x32 * x45 - 58 x32 * x48 - 16 x32 * x49
   - 12 x32 * x50 - 70 x32 * x51 + 74 x32 * x52 + 94 x32 * x53
   + 26 x32 * x54 + 80 x32 * x55 + 68 x32 * x56 + 4 x32 * x57
   + 82 x32 * x59 - 98 x32 * x60 + 64 x32 * x62 - 96 x32 * x63
   + 34 x32 * x65 + 86 x32 * x67 + 70 x32 * x68 - 44 x32 * x69
   - 52 x32 * x70 + 8 x32 * x71 - 44 x32 * x73 + 64 x32 * x74
   - 42 x32 * x76 + 26 x32 * x77 - 22 x32 * x78 + 27 x33 ^2 + 12 x33 * x34
   - 78 x33 * x35 - 52 x33 * x36 + 98 x33 * x37 + 76 x33 * x38
   + 48 x33 * x40 - 90 x33 * x41 - 66 x33 * x42 + 80 x33 * x44
   - 24 x33 * x45 - 16 x33 * x46 + 58 x33 * x47 + 78 x33 * x49
   + 66 x33 * x50 - 24 x33 * x51 - 34 x33 * x52 - 30 x33 * x54
   - 58 x33 * x55 + 64 x33 * x56 + 68 x33 * x57 - 12 x33 * x58
   + 50 x33 * x59 + 28 x33 * x60 + 96 x33 * x61 - 24 x33 * x62
   - 46 x33 * x64 - 80 x33 * x65 + 40 x33 * x66 + 8 x33 * x67
   - 80 x33 * x68 + 94 x33 * x69 + 12 x33 * x72 + 12 x33 * x73
   - 84 x33 * x74 - 76 x33 * x75 - 88 x33 * x77 - 92 x33 * x78 - 21 x34 ^2
   + 22 x34 * x35 + 20 x34 * x36 + 66 x34 * x37 + 44 x34 * x38
   - 82 x34 * x40 + 48 x34 * x41 - 66 x34 * x42 - 60 x34 * x43
   + 98 x34 * x44 + 56 x34 * x46 - 72 x34 * x47 + 66 x34 * x48
   - 22 x34 * x49 - 62 x34 * x50 + 48 x34 * x51 + 98 x34 * x52
   + 64 x34 * x53 - 28 x34 * x54 - 58 x34 * x56 - 18 x34 * x57
   + 90 x34 * x58 - 88 x34 * x62 + 50 x34 * x63 + 98 x34 * x64
   - 68 x34 * x66 + 96 x34 * x67 - 6 x34 * x69 + 26 x34 * x70
   - 20 x34 * x71 - 86 x34 * x72 - 84 x34 * x74 + 64 x34 * x76
   + 50 x34 * x77 - 64 x34 * x78 - 76 x34 * x79 - 26 x35 ^2 - 14 x35 * x36
   + 72 x35 * x39 + 78 x35 * x41 - 64 x35 * x42 + 12 x35 * x43
   + 54 x35 * x44 + 44 x35 * x45 - 12 x35 * x46 - 22 x35 * x47
   + 44 x35 * x48 - 96 x35 * x49 + 74 x35 * x50 + 38 x35 * x51
   + 66 x35 * x53 + 52 x35 * x55 - 90 x35 * x56 - 2 x35 * x57
   - 22 x35 * x59 - 18 x35 * x60 - 58 x35 * x61 - 90 x35 * x64
   + 94 x35 * x65 + 64 x35 * x66 - 48 x35 * x67 - 86 x35 * x68
   + 78 x35 * x69 + 24 x35 * x73 - 86 x35 * x74 - 84 x35 * x75
   + 14 x35 * x76 - 86 x35 * x77 + 16 x35 * x78 + 7 x36 ^2 - 26 x36 * x37
   - 4 x36 * x38 + 6 x36 * x39 + 30 x36 * x40 + 20 x36 * x41 + 6 x36 * x43
   - 66 x36 * x45 - 22 x36 * x46 - 30 x36 * x47 - 14 x36 * x49
   + 80 x36 * x50 + 58 x36 * x52 + 62 x36 * x54 + 60 x36 * x55
   + 66 x36 * x56 - 72 x36 * x57 - 62 x36 * x58 + 70 x36 * x60
   + 96 x36 * x61 + 2 x36 * x62 + 66 x36 * x63 + 30 x36 * x65 - 8 x36 * x66
   + 62 x36 * x68 + 8 x36 * x69 + 62 x36 * x70 + 44 x36 * x71
   - 60 x36 * x72 - 92 x36 * x73 + 4 x36 * x74 - 44 x36 * x75
   + 44 x36 * x77 + 90 x36 * x78 - 56 x36 * x79 + 94 x37 * x38
   - 10 x37 * x39 + 94 x37 * x40 + 58 x37 * x41 + 52 x37 * x42
   + 68 x37 * x44 + 74 x37 * x45 + 32 x37 * x46 + 98 x37 * x47
   + 42 x37 * x48 - 36 x37 * x49 + 46 x37 * x50 + 40 x37 * x51
   - 56 x37 * x53 + 84 x37 * x54 - 28 x37 * x55 + 18 x37 * x56
   - 48 x37 * x58 - 90 x37 * x59 + 86 x37 * x62 - 20 x37 * x64
   + 24 x37 * x65 + 84 x37 * x66 + 68 x37 * x67 - 2 x37 * x68
   - 24 x37 * x69 + 26 x37 * x70 + 72 x37 * x71 + 26 x37 * x72
   + 12 x37 * x73 - 10 x37 * x74 - 60 x37 * x75 + 88 x37 * x76
   - 36 x37 * x77 - 82 x37 * x78 + 31 x38 ^2 + 72 x38 * x40 + 92 x38 * x41
   - 44 x38 * x42 - 72 x38 * x43 - 22 x38 * x44 - 74 x38 * x47
   + 14 x38 * x48 - 96 x38 * x49 - 88 x38 * x50 - 12 x38 * x51
   - 18 x38 * x52 + 64 x38 * x53 + 52 x38 * x55 - 78 x38 * x56
   - 60 x38 * x57 + 38 x38 * x58 + 52 x38 * x59 - 52 x38 * x60
   + 44 x38 * x61 - 60 x38 * x62 - 80 x38 * x63 + 84 x38 * x65
   + 40 x38 * x66 - 18 x38 * x67 - 42 x38 * x69 + 56 x38 * x71
   + 48 x38 * x72 + 44 x38 * x73 + 24 x38 * x74 + 64 x38 * x75
   - 48 x38 * x76 - 92 x38 * x77 - 26 x38 * x79 + 36 x39 ^2 + 72 x39 * x40
   + 30 x39 * x41 + 82 x39 * x42 + 26 x39 * x43 + 50 x39 * x44
   - 14 x39 * x45 + 66 x39 * x46 - 62 x39 * x47 + 76 x39 * x48
   + 76 x39 * x49 + 4 x39 * x50 - 12 x39 * x51 + 56 x39 * x52
   - 80 x39 * x53 + 46 x39 * x54 - 32 x39 * x55 - 92 x39 * x56
   - 98 x39 * x58 - 14 x39 * x60 + 88 x39 * x61 + 52 x39 * x63
   - 48 x39 * x64 - 72 x39 * x65 + 64 x39 * x66 - 2 x39 * x68
   + 98 x39 * x69 - 36 x39 * x70 - 60 x39 * x71 + 38 x39 * x72
   + 18 x39 * x73 - 70 x39 * x74 + 20 x39 * x75 + 96 x39 * x76
   + 34 x39 * x78 - 40 x39 * x79 - 58 x40 * x41 - 76 x40 * x42
   + 78 x40 * x43 + 68 x40 * x45 + 18 x40 * x46 + 84 x40 * x47
   + 36 x40 * x48 + 72 x40 * x50 + 58 x40 * x51 - 42 x40 * x53
   + 86 x40 * x54 - 8 x40 * x57 - 72 x40 * x58 + 30 x40 * x60
   - 70 x40 * x61 - 36 x40 * x62 + 4 x40 * x66 + 16 x40 * x68 + 4 x40 * x69
   - 58 x40 * x70 - 82 x40 * x71 - 30 x40 * x72 + 40 x40 * x75
   - 6 x40 * x77 + 52 x40 * x78 - 28 x41 ^2 + 64 x41 * x42 + 78 x41 * x44
   + 8 x41 * x46 - 14 x41 * x48 + 92 x41 * x49 + 24 x41 * x50 + 4 x41 * x52
   + 44 x41 * x53 - 6 x41 * x54 - 74 x41 * x55 + 18 x41 * x56
   - 66 x41 * x58 - 74 x41 * x61 - 20 x41 * x63 - 96 x41 * x64
   - 4 x41 * x65 - 54 x41 * x66 + 60 x41 * x67 - 34 x41 * x68
   - 58 x41 * x69 + 42 x41 * x71 + 8 x41 * x72 - 32 x41 * x73
   + 54 x41 * x74 - 54 x41 * x75 + 38 x41 * x77 + 2 x41 * x79 + 40 x42 ^2
   - 74 x42 * x45 + 8 x42 * x47 - 20 x42 * x49 - 40 x42 * x50 - 4 x42 * x53
   - 82 x42 * x55 + 30 x42 * x57 - 44 x42 * x58 - 34 x42 * x60
   - 56 x42 * x61 + 84 x42 * x62 - 50 x42 * x63 - 66 x42 * x64
   - 42 x42 * x65 + 34 x42 * x67 + 60 x42 * x70 - 8 x42 * x71
   + 32 x42 * x72 + 50 x42 * x73 - 70 x42 * x75 + 24 x42 * x76
   + 68 x42 * x78 - 50 x42 * x79 + 52 x43 * x45 - 82 x43 * x47
   - 68 x43 * x48 - 98 x43 * x49 + 82 x43 * x50 + 56 x43 * x51
   - 32 x43 * x53 + 56 x43 * x55 - 44 x43 * x56 + 2 x43 * x57
   - 90 x43 * x58 + 62 x43 * x59 + 62 x43 * x61 + 92 x43 * x62
   + 40 x43 * x63 - 76 x43 * x64 - 90 x43 * x66 - 24 x43 * x68
   - 24 x43 * x69 + 42 x43 * x70 + 90 x43 * x71 - 6 x43 * x72
   + 56 x43 * x74 + 56 x43 * x75 - 18 x43 * x78 - 18 x44 * x45
   - 10 x44 * x46 + 46 x44 * x48 + 78 x44 * x50 - 90 x44 * x51
   + 38 x44 * x52 - 74 x44 * x53 - 12 x44 * x55 + 20 x44 * x56
   + 14 x44 * x57 - 80 x44 * x60 - 26 x44 * x61 - 46 x44 * x63
   - 36 x44 * x64 - 74 x44 * x65 - 52 x44 * x66 - 58 x44 * x67
   - 86 x44 * x68 - 8 x44 * x71 + 74 x44 * x72 - 48 x44 * x73
   - 18 x44 * x74 + 26 x44 * x75 + 94 x44 * x76 - 18 x44 * x78
   + 88 x44 * x79 + 44 x45 * x46 + 76 x45 * x47 + 82 x45 * x48
   - 66 x45 * x49 - 86 x45 * x50 + 74 x45 * x51 - 94 x45 * x52
   - 20 x45 * x55 + 44 x45 * x56 - 28 x45 * x57 + 80 x45 * x59
   - 20 x45 * x63 + 36 x45 * x64 + 4 x45 * x66 - 60 x45 * x68
   - 24 x45 * x70 + 50 x45 * x71 - 26 x45 * x72 + 42 x45 * x74
   - 32 x45 * x75 - 98 x45 * x79 + 40 x46 ^2 - 80 x46 * x47 + 44 x46 * x48
   - 72 x46 * x49 - 26 x46 * x50 + 54 x46 * x51 + 34 x46 * x52
   - 48 x46 * x53 + 70 x46 * x54 + 30 x46 * x57 + 4 x46 * x58
   - 32 x46 * x60 - 84 x46 * x62 + 12 x46 * x63 + 66 x46 * x64
   + 4 x46 * x65 - 52 x46 * x66 - 22 x46 * x67 - 6 x46 * x68 + 80 x46 * x69
   + 62 x46 * x72 - 52 x46 * x73 - 64 x46 * x74 - 34 x46 * x78
   + 90 x46 * x79 - 48 x47 * x48 + 50 x47 * x49 - 16 x47 * x51
   + 92 x47 * x52 + 24 x47 * x53 + 76 x47 * x56 - 10 x47 * x57
   + 48 x47 * x58 + 38 x47 * x59 - 56 x47 * x60 - 86 x47 * x61
   - 94 x47 * x62 + 8 x47 * x63 + 52 x47 * x64 + 68 x47 * x66
   + 44 x47 * x67 + 2 x47 * x71 + 12 x47 * x73 - 26 x47 * x74 - 2 x47 * x76
   - 86 x47 * x77 - 72 x47 * x78 - 82 x47 * x79 - 96 x48 * x49
   + 36 x48 * x51 - 86 x48 * x53 + 30 x48 * x55 - 40 x48 * x57
   + 30 x48 * x58 - 6 x48 * x59 + 88 x48 * x60 - 46 x48 * x61
   + 58 x48 * x62 + 2 x48 * x63 - 88 x48 * x64 + 92 x48 * x65
   - 24 x48 * x66 - 54 x48 * x67 - 90 x48 * x68 + 66 x48 * x70
   + 56 x48 * x71 - 6 x48 * x72 - 66 x48 * x73 - 72 x48 * x74
   + 64 x48 * x75 + 58 x48 * x76 - 86 x48 * x77 + 24 x49 ^2 + 86 x49 * x50
   + 64 x49 * x51 + 96 x49 * x52 - 84 x49 * x53 + 20 x49 * x54
   + 36 x49 * x55 - 92 x49 * x56 + 82 x49 * x57 - 50 x49 * x59
   - 32 x49 * x61 - 94 x49 * x62 + 58 x49 * x65 + 46 x49 * x66
   - 62 x49 * x68 + 74 x49 * x69 - 4 x49 * x71 - 58 x49 * x72
   + 56 x49 * x73 + 34 x49 * x75 - 88 x49 * x76 - 18 x49 * x79
   + 70 x50 * x51 + 78 x50 * x53 + 82 x50 * x54 + 70 x50 * x55
   - 20 x50 * x56 - 34 x50 * x57 - 72 x50 * x58 + 64 x50 * x59
   - 94 x50 * x60 + 62 x50 * x61 + 66 x50 * x63 + 48 x50 * x64
   + 32 x50 * x65 + 6 x50 * x66 - 30 x50 * x67 + 64 x50 * x68
   - 40 x50 * x69 - 6 x50 * x70 + 66 x50 * x72 + 4 x50 * x73 - 48 x50 * x74
   + 54 x50 * x75 - 18 x50 * x76 + 6 x50 * x77 - 74 x50 * x78
   + 10 x50 * x79 - 48 x51 ^2 - 62 x51 * x53 - 20 x51 * x55 - 42 x51 * x56
   - 18 x51 * x57 + 26 x51 * x58 + 40 x51 * x59 - 84 x51 * x60
   + 22 x51 * x62 - 76 x51 * x63 + 88 x51 * x64 + 60 x51 * x66
   + 60 x51 * x68 - 42 x51 * x70 + 68 x51 * x71 - 52 x51 * x73
   - 38 x51 * x74 + 50 x51 * x76 - 78 x51 * x78 + 66 x51 * x79
   + 66 x52 * x53 + 88 x52 * x54 + 30 x52 * x55 + 12 x52 * x57
   + 94 x52 * x59 + 84 x52 * x60 + 38 x52 * x61 - 56 x52 * x62
   - 4 x52 * x68 - 92 x52 * x69 + 40 x52 * x71 + 22 x52 * x73
   + 20 x52 * x74 + 10 x52 * x75 - 52 x52 * x76 + 10 x52 * x77
   + 70 x52 * x78 - 92 x52 * x79 - 20 x53 ^2 - 30 x53 * x55 + 62 x53 * x57
   + 8 x53 * x58 + 72 x53 * x60 + 82 x53 * x61 - 6 x53 * x62 - 96 x53 * x64
   + 94 x53 * x65 - 34 x53 * x68 + 32 x53 * x69 + 60 x53 * x70
   + 96 x53 * x72 - 76 x53 * x77 - 26 x53 * x78 + 64 x53 * x79 + 34 x54 ^2
   + 86 x54 * x57 - 8 x54 * x60 + 76 x54 * x61 + 56 x54 * x62
   - 62 x54 * x63 + 66 x54 * x64 + 66 x54 * x65 - 2 x54 * x66
   - 88 x54 * x67 - 76 x54 * x68 + 78 x54 * x69 - 34 x54 * x70
   - 68 x54 * x72 - 26 x54 * x73 + 92 x54 * x74 - 58 x54 * x75
   - 26 x54 * x76 + 32 x54 * x77 - 50 x54 * x79 - 40 x55 * x56
   + 74 x55 * x57 + 20 x55 * x58 - 44 x55 * x59 + 46 x55 * x60
   - 46 x55 * x62 - 36 x55 * x63 - 64 x55 * x64 - 54 x55 * x65
   - 74 x55 * x66 + 28 x55 * x68 - 46 x55 * x69 - 80 x55 * x70
   + 26 x55 * x71 - 10 x55 * x72 + 60 x55 * x73 - 96 x55 * x74
   - 64 x55 * x75 - 14 x55 * x77 - 42 x55 * x79 - 48 x56 ^2 + 50 x56 * x57
   - 76 x56 * x59 - 86 x56 * x60 - 28 x56 * x62 + 46 x56 * x64
   - 16 x56 * x65 + 56 x56 * x67 - 2 x56 * x68 + 2 x56 * x69 + 56 x56 * x70
   - 34 x56 * x71 - 36 x56 * x72 + 56 x56 * x73 + 48 x56 * x74
   - 94 x56 * x75 + 16 x56 * x76 + 52 x56 * x77 - 88 x56 * x79
   - 74 x57 * x59 + 24 x57 * x60 - 30 x57 * x61 - 4 x57 * x62 - 4 x57 * x63
   - 30 x57 * x64 + 54 x57 * x65 - 92 x57 * x66 + 40 x57 * x67
   + 8 x57 * x68 - 98 x57 * x71 - 16 x57 * x73 - 42 x57 * x75
   + 48 x57 * x76 + 78 x57 * x77 + 38 x57 * x78 - 48 x58 ^2 - 50 x58 * x59
   - 96 x58 * x61 - 32 x58 * x63 + 52 x58 * x64 - 54 x58 * x65
   - 64 x58 * x66 + 56 x58 * x67 + 4 x58 * x68 - 34 x58 * x69
   - 28 x58 * x70 - 78 x58 * x71 + 78 x58 * x72 - 76 x58 * x73
   + 42 x58 * x75 + 2 x58 * x76 - 54 x58 * x78 - 96 x58 * x79 - 41 x59 ^2
   + 96 x59 * x60 + 86 x59 * x61 - 54 x59 * x62 - 8 x59 * x63
   + 46 x59 * x65 + 48 x59 * x66 - 18 x59 * x67 - 44 x59 * x68
   - 82 x59 * x69 + 50 x59 * x70 + 50 x59 * x71 + 30 x59 * x72
   + 88 x59 * x73 - 26 x59 * x74 - 26 x59 * x75 + 82 x59 * x76
   + 74 x59 * x77 - 4 x59 * x78 - 26 x59 * x79 - 47 x60 ^2 + 54 x60 * x61
   + 10 x60 * x62 - 86 x60 * x64 - 16 x60 * x65 + 48 x60 * x66
   - 18 x60 * x68 + 44 x60 * x69 + 22 x60 * x70 - 84 x60 * x71
   + 98 x60 * x72 + 62 x60 * x73 - 60 x60 * x74 - 26 x60 * x76
   - 82 x60 * x77 - 90 x60 * x78 + 45 x61 ^2 + 92 x61 * x62 - 12 x61 * x63
   + 94 x61 * x64 - 86 x61 * x65 + 28 x61 * x66 + 12 x61 * x67
   - 42 x61 * x68 + 28 x61 * x69 + 18 x61 * x70 - 30 x61 * x71
   + 90 x61 * x72 + 74 x61 * x73 + 46 x61 * x74 + 44 x61 * x76
   + 76 x61 * x77 + 92 x61 * x78 - 38 x61 * x79 - 46 x62 * x64
   + 40 x62 * x65 - 98 x62 * x66 - 94 x62 * x68 - 44 x62 * x69
   + 64 x62 * x71 + 40 x62 * x72 + 38 x62 * x73 - 76 x62 * x74
   - 44 x62 * x75 + 40 x62 * x76 - 66 x62 * x77 + 86 x62 * x78
   - 86 x62 * x79 - 15 x63 ^2 + 92 x63 * x64 + 72 x63 * x66 - 14 x63 * x67
   + 90 x63 * x68 + 8 x63 * x70 + 46 x63 * x71 - 32 x63 * x72
   + 14 x63 * x73 - 62 x63 * x74 - 26 x63 * x75 - 56 x63 * x76
   - 32 x63 * x77 + 46 x63 * x78 - 8 x64 ^2 - 30 x64 * x65 - 76 x64 * x66
   + 28 x64 * x70 + 94 x64 * x71 + 88 x64 * x73 - 48 x64 * x74
   + 66 x64 * x77 - 8 x64 * x78 - 94 x64 * x79 + 32 x65 ^2 - 84 x65 * x66
   + 40 x65 * x67 - 24 x65 * x68 - 66 x65 * x69 + 58 x65 * x70
   + 10 x65 * x71 + 78 x65 * x72 + 64 x65 * x73 - 30 x65 * x74
   - 86 x65 * x76 - 46 x65 * x79 + 18 x66 ^2 - 8 x66 * x68 - 54 x66 * x70
   + 2 x66 * x71 - 18 x66 * x72 - 44 x66 * x73 - 66 x66 * x74
   - 58 x66 * x76 + 92 x66 * x77 + 28 x66 * x79 - 24 x67 ^2 - 60 x67 * x69
   - 50 x67 * x70 + 36 x67 * x72 - 52 x67 * x76 - 6 x67 * x77
   - 70 x67 * x79 + 12 x68 ^2 - 54 x68 * x69 - 70 x68 * x71 - 26 x68 * x72
   + 20 x68 * x73 - 40 x68 * x74 + 34 x68 * x76 + 48 x68 * x77
   - 10 x68 * x78 + 62 x68 * x79 + 23 x69 ^2 - 78 x69 * x70 - 48 x69 * x71
   + 74 x69 * x72 - 64 x69 * x75 - 28 x69 * x78 - 80 x69 * x79 + 46 x70 ^2
   + 58 x70 * x71 + 86 x70 * x75 - 90 x70 * x77 + 46 x70 * x79 - 7 x71 ^2
   + 44 x71 * x72 + 94 x71 * x73 - 24 x71 * x76 + 86 x71 * x77
   - 94 x71 * x78 - 80 x71 * x79 - 8 x72 ^2 - 34 x72 * x73 + 36 x72 * x75
   - 56 x72 * x76 + 4 x72 * x77 - 36 x72 * x78 - 66 x72 * x79
   + 88 x73 * x75 - 32 x73 * x77 + 48 x73 * x78 - 22 x74 * x75
   - 72 x74 * x76 - 68 x74 * x77 - 28 x74 * x79 + 54 x75 * x77
   - 4 x75 * x78 - 10 x75 * x79 - 30 x76 ^2 + 96 x76 * x78 - 18 x76 * x79
   + 80 x77 * x78 + 82 x77 * x79 - 7 x78 ^2 + 30 x78 * x79 ] / 2 
Subject To
Bounds
 x0 <= 1
 x1 <= 1
 x2 <= 1
 x3 <= 1
 x4 <= 1
 x5 <= 1
 x6 <= 1
 x7 <= 1
 x8 <= 1
 x9 <= 1
 x10 <= 1
 x11 <= 1
 x12 <= 1
 x13 <= 1
 x14 <= 1
 x15 <= 1
 x16 <= 1
 x17 <= 1
 x18 <= 1
 x19 <= 1
 x20 <= 1
 x21 <= 1
 x22 <= 1
 x23 <= 1
 x24 <= 1
 x25 <= 1
 x26 <= 1
 x27 <= 1
 x28 <= 1
 x29 <= 1
 x30 <= 1
 x31 <= 1
 x32 <= 1
 x33 <= 1
 x34 <= 1
 x35 <= 1
 x36 <= 1
 x37 <= 1
 x38 <= 1
 x39 <= 1
 x40 <= 1
 x41 <= 1
 x42 <= 1
 x43 <= 1
 x44 <= 1
 x45 <= 1
 x46 <= 1
 x47 <= 1
 x48 <= 1
 x49 <= 1
 x50 <= 1
 x51 <= 1
 x52 <= 1
 x53 <= 1
 x54 <= 1
 x55 <= 1
 x56 <= 1
 x57 <= 1
 x58 <= 1
 x59 <= 1
 x60 <= 1
 x61 <= 1
 x62 <= 1
 x63 <= 1
 x64 <= 1
 x65 <= 1
 x66 <= 1
 x67 <= 1
 x68 <= 1
 x69 <= 1
 x70 <= 1
 x71 <= 1
 x72 <= 1
 x73 <= 1
 x74 <= 1
 x75 <= 1
 x76 <= 1
 x77 <= 1
 x78 <= 1
 x79 <= 1
End
